c turning on binary mode checking
c parsing input formula with 259840 variables and 1039934 clauses
c finished parsing, read 3566275 bytes from proof file
c detected empty clause; start verification via backward checking
c 10027 of 1039934 clauses in core                            
c 3266 of 135364 lemmas in core using 97948 resolution steps
c 0 RAT lemmas in core; 802 redundant literals in core lemmas
s VERIFIED
c verification time: 1.673 seconds
